# Objective value = 1.4733150000000027e+04
I_0_0 2390
I_0_1 3.2969999999999982e+03
I_0_2 2.8900000000000050e+03
I_0_3 3.0469999999999905e+03
I_0_4 2.6159999999999864e+03
I_0_5 2.8529999999999973e+03
I_0_6 3.7599999999999973e+03
I_1_0 78
I_1_1 0
I_1_2 78
I_1_3 0
I_1_4 78
I_1_5 78
I_1_6 0
I_2_0 196
I_2_1 98
I_2_2 196
I_2_3 98
I_2_4 196
I_2_5 98
I_2_6 0
I_3_0 44
I_3_1 0
I_3_2 44
I_3_3 2.1045387654794467e-12
I_3_4 4.4000000000002110e+01
I_3_5 44
I_3_6 -8.43769498715119e-15
I_4_0 130
I_4_1 65
I_4_2 0
I_4_3 1.3000000000000460e+02
I_4_4 130
I_4_5 65
I_4_6 0
I_5_0 190
I_5_1 95.0000000000018
I_5_2 0
I_5_3 1.9000000000000028e+02
I_5_4 190
I_5_5 95
I_5_6 0
I_6_0 22
I_6_1 11
I_6_2 22
I_6_3 11
I_6_4 22
I_6_5 1.1000000000000007e+01
I_6_6 5.3290705182007514e-15
I_7_0 114
I_7_1 57
I_7_2 1.1399999999999999e+02
I_7_3 5.6999999999999986e+01
I_7_4 1.1399999999999999e+02
I_7_5 5.6999999999999979e+01
I_7_6 -2.0428103653102880e-14
I_8_0 38
I_8_1 0
I_8_2 38
I_8_3 2.2204460492503131e-15
I_8_4 38
I_8_5 38
I_8_6 0
I_9_0 94
I_9_1 47
I_9_2 94
I_9_3 47
I_9_4 9.4000000000000028e+01
I_9_5 4.7000000000000028e+01
I_9_6 0
I_10_0 180
I_10_1 90
I_10_2 0
I_10_3 180
I_10_4 180
I_10_5 9.0000000000000014e+01
I_10_6 -1.0214051826551440e-14
I_11_0 188
I_11_1 94
I_11_2 188
I_11_3 94
I_11_4 0
I_11_5 1.8800000000000006e+02
I_11_6 9.4000000000000043e+01
I_12_0 30
I_12_1 0
I_12_2 30
I_12_3 0
I_12_4 30
I_12_5 30
I_12_6 0
I_13_0 55
I_13_1 0
I_13_2 55
I_13_3 0
I_13_4 55
I_13_5 55
I_13_6 0
I_14_0 86
I_14_1 0
I_14_2 86
I_14_3 4.4408920985006262e-15
I_14_4 8.6000000000008185e+01
I_14_5 8.6000000000000014e+01
I_14_6 0
I_15_0 38
I_15_1 19
I_15_2 3.7999999999995133e+01
I_15_3 19.0000000000027
I_15_4 2.7000623958883807e-12
I_15_5 38.0000000000027
I_15_6 19.0000000000027
q_1_0_0 0
q_1_0_1 156
q_1_0_2 0
q_1_0_3 156
q_1_0_4 78
q_1_0_5 0
q_1_1_0 0
q_1_1_1 0
q_1_1_2 0
q_1_1_3 0
q_1_1_4 0
q_1_1_5 0
q_2_0_0 0
q_2_0_1 196
q_2_0_2 0
q_2_0_3 0
q_2_0_4 0
q_2_0_5 0
q_2_1_0 0
q_2_1_1 0
q_2_1_2 0
q_2_1_3 196
q_2_1_4 0
q_2_1_5 0
q_3_0_0 0
q_3_0_1 0
q_3_0_2 2.1047608100843718e-12
q_3_0_3 88
q_3_0_4 4.3999999999997890e+01
q_3_0_5 -1.5987211554602254e-14
q_3_1_0 0
q_3_1_1 88
q_3_1_2 -3.7747582837255322e-15
q_3_1_3 0
q_3_1_4 0
q_3_1_5 0
q_4_0_0 0
q_4_0_1 0
q_4_0_2 0
q_4_0_3 64.9999999999954
q_4_0_4 0
q_4_0_5 -3.1974423109204508e-14
q_4_1_0 0
q_4_1_1 0
q_4_1_2 1.9500000000000460e+02
q_4_1_3 0
q_4_1_4 0
q_4_1_5 3.0198066269804258e-14
q_5_0_0 0
q_5_0_1 -1.8095155004023525e-12
q_5_0_2 2.8500000000000028e+02
q_5_0_3 9.4999999999999730e+01
q_5_0_4 0
q_5_0_5 0
q_5_1_0 1.8095155004023525e-12
q_5_1_1 0
q_5_1_2 0
q_5_1_3 0
q_5_1_4 0
q_5_1_5 0
q_6_0_0 0
q_6_0_1 0
q_6_0_2 -1.7763568394002505e-15
q_6_0_3 0
q_6_0_4 0
q_6_0_5 0
q_6_1_0 0
q_6_1_1 22
q_6_1_2 0
q_6_1_3 2.2000000000000007e+01
q_6_1_4 0
q_6_1_5 0
q_7_0_0 0
q_7_0_1 0
q_7_0_2 0
q_7_0_3 0
q_7_0_4 0
q_7_0_5 0
q_7_1_0 0
q_7_1_1 1.1399999999999999e+02
q_7_1_2 0
q_7_1_3 114
q_7_1_4 0
q_7_1_5 0
q_8_0_0 0
q_8_0_1 76
q_8_0_2 4.4408920985006262e-16
q_8_0_3 0
q_8_0_4 3.8000000000000007e+01
q_8_0_5 1.1546319456101628e-14
q_8_1_0 0
q_8_1_1 0
q_8_1_2 1.7763568394002505e-15
q_8_1_3 7.6000000000000028e+01
q_8_1_4 0
q_8_1_5 -1.1546319456101628e-14
q_9_0_0 0
q_9_0_1 0
q_9_0_2 0
q_9_0_3 0
q_9_0_4 0
q_9_0_5 0
q_9_1_0 0
q_9_1_1 94
q_9_1_2 0
q_9_1_3 9.4000000000000028e+01
q_9_1_4 0
q_9_1_5 -2.3092638912203256e-14
q_10_0_0 0
q_10_0_1 0
q_10_0_2 270
q_10_0_3 8.9999999999999986e+01
q_10_0_4 0
q_10_0_5 -1.7763568394002505e-14
q_10_1_0 0
q_10_1_1 0
q_10_1_2 0
q_10_1_3 2.8421709430404007e-14
q_10_1_4 0
q_10_1_5 0
q_11_0_0 0
q_11_0_1 0
q_11_0_2 0
q_11_0_3 0
q_11_0_4 2.8200000000000006e+02
q_11_0_5 0
q_11_1_0 0
q_11_1_1 188
q_11_1_2 0
q_11_1_3 0
q_11_1_4 0
q_11_1_5 0
q_12_0_0 0
q_12_0_1 60
q_12_0_2 0
q_12_0_3 60
q_12_0_4 2.9999999999999996e+01
q_12_0_5 0
q_12_1_0 0
q_12_1_1 0
q_12_1_2 0
q_12_1_3 0
q_12_1_4 0
q_12_1_5 0
q_13_0_0 0
q_13_0_1 110
q_13_0_2 0
q_13_0_3 110
q_13_0_4 55
q_13_0_5 0
q_13_1_0 0
q_13_1_1 0
q_13_1_2 0
q_13_1_3 0
q_13_1_4 0
q_13_1_5 0
q_14_0_0 0
q_14_0_1 4.4408920985006262e-15
q_14_0_2 0
q_14_0_3 0
q_14_0_4 85.9999999999998
q_14_0_5 0
q_14_1_0 0
q_14_1_1 172
q_14_1_2 0
q_14_1_3 1.7200000000000819e+02
q_14_1_4 -7.9865003499435261e-12
q_14_1_5 0
q_15_0_0 0
q_15_0_1 3.7999999999995133e+01
q_15_0_2 0
q_15_0_3 0
q_15_0_4 57
q_15_0_5 2.8865798640254070e-15
q_15_1_0 0
q_15_1_1 0
q_15_1_2 7.5686124034746883e-12
q_15_1_3 0
q_15_1_4 0
q_15_1_5 0
y_0_0_0 0
y_0_0_1 1
y_0_0_2 1
y_0_0_3 1
y_0_0_4 1
y_0_0_5 0
y_0_1_0 0
y_0_1_1 1
y_0_1_2 1
y_0_1_3 1
y_0_1_4 0
y_0_1_5 0
y_1_0_0 0
y_1_0_1 1
y_1_0_2 0
y_1_0_3 1
y_1_0_4 1
y_1_0_5 0
y_1_1_0 0
y_1_1_1 0
y_1_1_2 0
y_1_1_3 0
y_1_1_4 0
y_1_1_5 0
y_2_0_0 0
y_2_0_1 1
y_2_0_2 0
y_2_0_3 0
y_2_0_4 0
y_2_0_5 0
y_2_1_0 0
y_2_1_1 0
y_2_1_2 0
y_2_1_3 1
y_2_1_4 0
y_2_1_5 0
y_3_0_0 0
y_3_0_1 0
y_3_0_2 4.7933879088191134e-14
y_3_0_3 1
y_3_0_4 1
y_3_0_5 -1.6653345369377348e-16
y_3_1_0 0
y_3_1_1 1
y_3_1_2 -1.0408340855860843e-16
y_3_1_3 0
y_3_1_4 0
y_3_1_5 0
y_4_0_0 0
y_4_0_1 0
y_4_0_2 0
y_4_0_3 1
y_4_0_4 0
y_4_0_5 -1.7347234759768071e-16
y_4_1_0 0
y_4_1_1 0
y_4_1_2 1
y_4_1_3 0
y_4_1_4 0
y_4_1_5 1.7347234759768071e-16
y_5_0_0 0
y_5_0_1 0
y_5_0_2 1
y_5_0_3 9.9999999999999989e-01
y_5_0_4 0
y_5_0_5 0
y_5_1_0 1.9047531583182657e-14
y_5_1_1 0
y_5_1_2 0
y_5_1_3 0
y_5_1_4 0
y_5_1_5 0
y_6_0_0 0
y_6_0_1 0
y_6_0_2 0
y_6_0_3 0
y_6_0_4 0
y_6_0_5 0
y_6_1_0 0
y_6_1_1 1
y_6_1_2 0
y_6_1_3 1
y_6_1_4 0
y_6_1_5 0
y_7_0_0 0
y_7_0_1 0
y_7_0_2 0
y_7_0_3 0
y_7_0_4 0
y_7_0_5 0
y_7_1_0 0
y_7_1_1 9.9999999999999989e-01
y_7_1_2 0
y_7_1_3 1
y_7_1_4 0
y_7_1_5 0
y_8_0_0 0
y_8_0_1 1
y_8_0_2 0
y_8_0_3 0
y_8_0_4 1
y_8_0_5 1.6653345369377348e-16
y_8_1_0 0
y_8_1_1 0
y_8_1_2 0
y_8_1_3 1.0000000000000004e+00
y_8_1_4 0
y_8_1_5 -1.6653345369377348e-16
y_9_0_0 0
y_9_0_1 0
y_9_0_2 0
y_9_0_3 0
y_9_0_4 0
y_9_0_5 0
y_9_1_0 0
y_9_1_1 1
y_9_1_2 0
y_9_1_3 1
y_9_1_4 0
y_9_1_5 -1.7347234759768071e-16
y_10_0_0 0
y_10_0_1 0
y_10_0_2 1
y_10_0_3 9.9999999999999967e-01
y_10_0_4 0
y_10_0_5 -8.3266726846886741e-17
y_10_1_0 0
y_10_1_1 0
y_10_1_2 0
y_10_1_3 3.1918911957973251e-16
y_10_1_4 0
y_10_1_5 0
y_11_0_0 0
y_11_0_1 0
y_11_0_2 0
y_11_0_3 0
y_11_0_4 1.0000000000000002e+00
y_11_0_5 0
y_11_1_0 0
y_11_1_1 1
y_11_1_2 0
y_11_1_3 0
y_11_1_4 0
y_11_1_5 0
y_12_0_0 0
y_12_0_1 1
y_12_0_2 0
y_12_0_3 1
y_12_0_4 1
y_12_0_5 0
y_12_1_0 0
y_12_1_1 0
y_12_1_2 0
y_12_1_3 0
y_12_1_4 0
y_12_1_5 0
y_13_0_0 0
y_13_0_1 1
y_13_0_2 0
y_13_0_3 1
y_13_0_4 1
y_13_0_5 0
y_13_1_0 0
y_13_1_1 0
y_13_1_2 0
y_13_1_3 0
y_13_1_4 0
y_13_1_5 0
y_14_0_0 0
y_14_0_1 0
y_14_0_2 0
y_14_0_3 0
y_14_0_4 1
y_14_0_5 0
y_14_1_0 0
y_14_1_1 1
y_14_1_2 0
y_14_1_3 1
y_14_1_4 0
y_14_1_5 0
y_15_0_0 0
y_15_0_1 9.9999999999987188e-01
y_15_0_2 0
y_15_0_3 0
y_15_0_4 1
y_15_0_5 1.6653345369377348e-16
y_15_1_0 0
y_15_1_1 0
y_15_1_2 1.3278267374516996e-13
y_15_1_3 0
y_15_1_4 0
y_15_1_5 -1.6653345369377348e-16
x_0_1_0_0 0
x_0_1_0_1 0
x_0_1_0_2 0
x_0_1_0_3 0
x_0_1_0_4 0
x_0_1_0_5 0
x_0_1_1_0 0
x_0_1_1_1 0
x_0_1_1_2 0
x_0_1_1_3 0
x_0_1_1_4 0
x_0_1_1_5 0
x_0_2_0_0 0
x_0_2_0_1 0
x_0_2_0_2 0
x_0_2_0_3 0
x_0_2_0_4 0
x_0_2_0_5 0
x_0_2_1_0 0
x_0_2_1_1 0
x_0_2_1_2 0
x_0_2_1_3 1.3877787807814457e-16
x_0_2_1_4 0
x_0_2_1_5 0
x_0_3_0_0 0
x_0_3_0_1 0
x_0_3_0_2 4.7933879088191134e-14
x_0_3_0_3 0
x_0_3_0_4 1
x_0_3_0_5 9.71445146547012e-17
x_0_3_1_0 0
x_0_3_1_1 9.9999999999999956e-01
x_0_3_1_2 0
x_0_3_1_3 0
x_0_3_1_4 0
x_0_3_1_5 -1.7347234759768071e-16
x_0_4_0_0 0
x_0_4_0_1 0
x_0_4_0_2 0
x_0_4_0_3 1
x_0_4_0_4 0
x_0_4_0_5 -9.71445146547012e-17
x_0_4_1_0 0
x_0_4_1_1 0
x_0_4_1_2 2
x_0_4_1_3 0
x_0_4_1_4 0
x_0_4_1_5 1.7347234759768071e-16
x_0_5_0_0 0
x_0_5_0_1 0
x_0_5_0_2 1
x_0_5_0_3 0
x_0_5_0_4 0
x_0_5_0_5 0
x_0_5_1_0 0
x_0_5_1_1 0
x_0_5_1_2 0
x_0_5_1_3 0
x_0_5_1_4 0
x_0_5_1_5 0
x_0_6_0_0 0
x_0_6_0_1 0
x_0_6_0_2 0
x_0_6_0_3 0
x_0_6_0_4 0
x_0_6_0_5 0
x_0_6_1_0 0
x_0_6_1_1 0
x_0_6_1_2 0
x_0_6_1_3 0
x_0_6_1_4 0
x_0_6_1_5 0
x_0_7_0_0 0
x_0_7_0_1 0
x_0_7_0_2 0
x_0_7_0_3 0
x_0_7_0_4 0
x_0_7_0_5 0
x_0_7_1_0 0
x_0_7_1_1 0
x_0_7_1_2 0
x_0_7_1_3 0
x_0_7_1_4 0
x_0_7_1_5 0
x_0_8_0_0 0
x_0_8_0_1 1.2811973704174306e-13
x_0_8_0_2 0
x_0_8_0_3 0
x_0_8_0_4 0
x_0_8_0_5 0
x_0_8_1_0 0
x_0_8_1_1 0
x_0_8_1_2 0
x_0_8_1_3 9.9999999999999922e-01
x_0_8_1_4 0
x_0_8_1_5 0
x_0_9_0_0 0
x_0_9_0_1 0
x_0_9_0_2 0
x_0_9_0_3 0
x_0_9_0_4 0
x_0_9_0_5 0
x_0_9_1_0 0
x_0_9_1_1 0
x_0_9_1_2 0
x_0_9_1_3 0
x_0_9_1_4 0
x_0_9_1_5 0
x_0_10_0_0 0
x_0_10_0_1 0
x_0_10_0_2 9.9999999999995193e-01
x_0_10_0_3 0
x_0_10_0_4 0
x_0_10_0_5 0
x_0_10_1_0 0
x_0_10_1_1 0
x_0_10_1_2 0
x_0_10_1_3 0
x_0_10_1_4 0
x_0_10_1_5 0
x_0_11_0_0 0
x_0_11_0_1 0
x_0_11_0_2 0
x_0_11_0_3 0
x_0_11_0_4 0
x_0_11_0_5 0
x_0_11_1_0 0
x_0_11_1_1 0
x_0_11_1_2 0
x_0_11_1_3 0
x_0_11_1_4 0
x_0_11_1_5 0
x_0_12_0_0 0
x_0_12_0_1 1
x_0_12_0_2 0
x_0_12_0_3 9.9999999999999989e-01
x_0_12_0_4 9.9999999999999978e-01
x_0_12_0_5 0
x_0_12_1_0 0
x_0_12_1_1 0
x_0_12_1_2 0
x_0_12_1_3 0
x_0_12_1_4 0
x_0_12_1_5 0
x_0_13_0_0 0
x_0_13_0_1 0
x_0_13_0_2 0
x_0_13_0_3 0
x_0_13_0_4 0
x_0_13_0_5 0
x_0_13_1_0 0
x_0_13_1_1 0
x_0_13_1_2 0
x_0_13_1_3 0
x_0_13_1_4 0
x_0_13_1_5 0
x_0_14_0_0 0
x_0_14_0_1 0
x_0_14_0_2 0
x_0_14_0_3 0
x_0_14_0_4 0
x_0_14_0_5 0
x_0_14_1_0 0
x_0_14_1_1 1.0000000000000004e+00
x_0_14_1_2 0
x_0_14_1_3 1
x_0_14_1_4 0
x_0_14_1_5 0
x_0_15_0_0 0
x_0_15_0_1 9.9999999999987188e-01
x_0_15_0_2 0
x_0_15_0_3 0
x_0_15_0_4 0
x_0_15_0_5 0
x_0_15_1_0 0
x_0_15_1_1 0
x_0_15_1_2 0
x_0_15_1_3 -1.8041124150158794e-16
x_0_15_1_4 0
x_0_15_1_5 0
x_1_2_0_0 0
x_1_2_0_1 0
x_1_2_0_2 0
x_1_2_0_3 0
x_1_2_0_4 0
x_1_2_0_5 0
x_1_2_1_0 0
x_1_2_1_1 0
x_1_2_1_2 0
x_1_2_1_3 0
x_1_2_1_4 0
x_1_2_1_5 0
x_1_3_0_0 0
x_1_3_0_1 0
x_1_3_0_2 0
x_1_3_0_3 0
x_1_3_0_4 0
x_1_3_0_5 0
x_1_3_1_0 0
x_1_3_1_1 0
x_1_3_1_2 0
x_1_3_1_3 0
x_1_3_1_4 0
x_1_3_1_5 0
x_1_4_0_0 0
x_1_4_0_1 0
x_1_4_0_2 0
x_1_4_0_3 0
x_1_4_0_4 0
x_1_4_0_5 0
x_1_4_1_0 0
x_1_4_1_1 0
x_1_4_1_2 0
x_1_4_1_3 0
x_1_4_1_4 0
x_1_4_1_5 0
x_1_5_0_0 0
x_1_5_0_1 0
x_1_5_0_2 0
x_1_5_0_3 0
x_1_5_0_4 0
x_1_5_0_5 0
x_1_5_1_0 0
x_1_5_1_1 0
x_1_5_1_2 0
x_1_5_1_3 0
x_1_5_1_4 0
x_1_5_1_5 0
x_1_6_0_0 0
x_1_6_0_1 0
x_1_6_0_2 0
x_1_6_0_3 0
x_1_6_0_4 0
x_1_6_0_5 0
x_1_6_1_0 0
x_1_6_1_1 0
x_1_6_1_2 0
x_1_6_1_3 0
x_1_6_1_4 0
x_1_6_1_5 0
x_1_7_0_0 0
x_1_7_0_1 0
x_1_7_0_2 0
x_1_7_0_3 0
x_1_7_0_4 0
x_1_7_0_5 0
x_1_7_1_0 0
x_1_7_1_1 0
x_1_7_1_2 0
x_1_7_1_3 0
x_1_7_1_4 0
x_1_7_1_5 0
x_1_8_0_0 0
x_1_8_0_1 0
x_1_8_0_2 0
x_1_8_0_3 0
x_1_8_0_4 0
x_1_8_0_5 1.6653345369377348e-16
x_1_8_1_0 0
x_1_8_1_1 0
x_1_8_1_2 0
x_1_8_1_3 0
x_1_8_1_4 0
x_1_8_1_5 0
x_1_9_0_0 0
x_1_9_0_1 0
x_1_9_0_2 0
x_1_9_0_3 0
x_1_9_0_4 0
x_1_9_0_5 0
x_1_9_1_0 0
x_1_9_1_1 0
x_1_9_1_2 0
x_1_9_1_3 0
x_1_9_1_4 0
x_1_9_1_5 0
x_1_10_0_0 0
x_1_10_0_1 0
x_1_10_0_2 0
x_1_10_0_3 0
x_1_10_0_4 0
x_1_10_0_5 -1.6653345369377348e-16
x_1_10_1_0 0
x_1_10_1_1 0
x_1_10_1_2 0
x_1_10_1_3 0
x_1_10_1_4 0
x_1_10_1_5 0
x_1_11_0_0 0
x_1_11_0_1 0
x_1_11_0_2 0
x_1_11_0_3 0
x_1_11_0_4 0
x_1_11_0_5 0
x_1_11_1_0 0
x_1_11_1_1 0
x_1_11_1_2 0
x_1_11_1_3 0
x_1_11_1_4 0
x_1_11_1_5 0
x_1_12_0_0 0
x_1_12_0_1 1
x_1_12_0_2 0
x_1_12_0_3 1
x_1_12_0_4 1.0000000000000002e+00
x_1_12_0_5 0
x_1_12_1_0 0
x_1_12_1_1 0
x_1_12_1_2 0
x_1_12_1_3 0
x_1_12_1_4 0
x_1_12_1_5 0
x_1_13_0_0 0
x_1_13_0_1 1
x_1_13_0_2 0
x_1_13_0_3 1
x_1_13_0_4 9.9999999999999978e-01
x_1_13_0_5 0
x_1_13_1_0 0
x_1_13_1_1 0
x_1_13_1_2 0
x_1_13_1_3 0
x_1_13_1_4 0
x_1_13_1_5 0
x_1_14_0_0 0
x_1_14_0_1 0
x_1_14_0_2 0
x_1_14_0_3 0
x_1_14_0_4 0
x_1_14_0_5 0
x_1_14_1_0 0
x_1_14_1_1 0
x_1_14_1_2 0
x_1_14_1_3 0
x_1_14_1_4 0
x_1_14_1_5 0
x_1_15_0_0 0
x_1_15_0_1 0
x_1_15_0_2 0
x_1_15_0_3 0
x_1_15_0_4 0
x_1_15_0_5 0
x_1_15_1_0 0
x_1_15_1_1 0
x_1_15_1_2 0
x_1_15_1_3 0
x_1_15_1_4 0
x_1_15_1_5 0
x_2_3_0_0 0
x_2_3_0_1 0
x_2_3_0_2 0
x_2_3_0_3 0
x_2_3_0_4 0
x_2_3_0_5 0
x_2_3_1_0 0
x_2_3_1_1 0
x_2_3_1_2 0
x_2_3_1_3 0
x_2_3_1_4 0
x_2_3_1_5 0
x_2_4_0_0 0
x_2_4_0_1 0
x_2_4_0_2 0
x_2_4_0_3 0
x_2_4_0_4 0
x_2_4_0_5 0
x_2_4_1_0 0
x_2_4_1_1 0
x_2_4_1_2 0
x_2_4_1_3 0
x_2_4_1_4 0
x_2_4_1_5 0
x_2_5_0_0 0
x_2_5_0_1 0
x_2_5_0_2 0
x_2_5_0_3 0
x_2_5_0_4 0
x_2_5_0_5 0
x_2_5_1_0 0
x_2_5_1_1 0
x_2_5_1_2 0
x_2_5_1_3 0
x_2_5_1_4 0
x_2_5_1_5 0
x_2_6_0_0 0
x_2_6_0_1 0
x_2_6_0_2 0
x_2_6_0_3 0
x_2_6_0_4 0
x_2_6_0_5 0
x_2_6_1_0 0
x_2_6_1_1 0
x_2_6_1_2 0
x_2_6_1_3 -1.9428902930940239e-16
x_2_6_1_4 0
x_2_6_1_5 0
x_2_7_0_0 0
x_2_7_0_1 0
x_2_7_0_2 0
x_2_7_0_3 0
x_2_7_0_4 0
x_2_7_0_5 0
x_2_7_1_0 0
x_2_7_1_1 0
x_2_7_1_2 0
x_2_7_1_3 0
x_2_7_1_4 0
x_2_7_1_5 0
x_2_8_0_0 0
x_2_8_0_1 1
x_2_8_0_2 0
x_2_8_0_3 0
x_2_8_0_4 0
x_2_8_0_5 0
x_2_8_1_0 0
x_2_8_1_1 0
x_2_8_1_2 0
x_2_8_1_3 1.0000000000000002e+00
x_2_8_1_4 0
x_2_8_1_5 0
x_2_9_0_0 0
x_2_9_0_1 0
x_2_9_0_2 0
x_2_9_0_3 0
x_2_9_0_4 0
x_2_9_0_5 0
x_2_9_1_0 0
x_2_9_1_1 0
x_2_9_1_2 0
x_2_9_1_3 1
x_2_9_1_4 0
x_2_9_1_5 0
x_2_10_0_0 0
x_2_10_0_1 0
x_2_10_0_2 0
x_2_10_0_3 0
x_2_10_0_4 0
x_2_10_0_5 0
x_2_10_1_0 0
x_2_10_1_1 0
x_2_10_1_2 0
x_2_10_1_3 0
x_2_10_1_4 0
x_2_10_1_5 0
x_2_11_0_0 0
x_2_11_0_1 0
x_2_11_0_2 0
x_2_11_0_3 0
x_2_11_0_4 0
x_2_11_0_5 0
x_2_11_1_0 0
x_2_11_1_1 0
x_2_11_1_2 0
x_2_11_1_3 0
x_2_11_1_4 0
x_2_11_1_5 0
x_2_12_0_0 0
x_2_12_0_1 0
x_2_12_0_2 0
x_2_12_0_3 0
x_2_12_0_4 0
x_2_12_0_5 0
x_2_12_1_0 0
x_2_12_1_1 0
x_2_12_1_2 0
x_2_12_1_3 0
x_2_12_1_4 0
x_2_12_1_5 0
x_2_13_0_0 0
x_2_13_0_1 1
x_2_13_0_2 0
x_2_13_0_3 0
x_2_13_0_4 0
x_2_13_0_5 0
x_2_13_1_0 0
x_2_13_1_1 0
x_2_13_1_2 0
x_2_13_1_3 0
x_2_13_1_4 0
x_2_13_1_5 0
x_2_14_0_0 0
x_2_14_0_1 0
x_2_14_0_2 0
x_2_14_0_3 0
x_2_14_0_4 0
x_2_14_0_5 0
x_2_14_1_0 0
x_2_14_1_1 0
x_2_14_1_2 0
x_2_14_1_3 0
x_2_14_1_4 0
x_2_14_1_5 0
x_2_15_0_0 0
x_2_15_0_1 0
x_2_15_0_2 0
x_2_15_0_3 0
x_2_15_0_4 0
x_2_15_0_5 0
x_2_15_1_0 0
x_2_15_1_1 0
x_2_15_1_2 0
x_2_15_1_3 0
x_2_15_1_4 0
x_2_15_1_5 0
x_3_4_0_0 0
x_3_4_0_1 0
x_3_4_0_2 0
x_3_4_0_3 1
x_3_4_0_4 0
x_3_4_0_5 -2.7755575615628914e-16
x_3_4_1_0 0
x_3_4_1_1 0
x_3_4_1_2 0
x_3_4_1_3 0
x_3_4_1_4 0
x_3_4_1_5 1.7347234759768071e-16
x_3_5_0_0 0
x_3_5_0_1 0
x_3_5_0_2 0
x_3_5_0_3 1.0000000000000002e+00
x_3_5_0_4 0
x_3_5_0_5 0
x_3_5_1_0 0
x_3_5_1_1 0
x_3_5_1_2 -1.3183898417423734e-16
x_3_5_1_3 0
x_3_5_1_4 0
x_3_5_1_5 0
x_3_6_0_0 0
x_3_6_0_1 0
x_3_6_0_2 0
x_3_6_0_3 0
x_3_6_0_4 0
x_3_6_0_5 0
x_3_6_1_0 0
x_3_6_1_1 1.0000000000000004e+00
x_3_6_1_2 0
x_3_6_1_3 -3.1918911957973251e-16
x_3_6_1_4 0
x_3_6_1_5 0
x_3_7_0_0 0
x_3_7_0_1 0
x_3_7_0_2 0
x_3_7_0_3 0
x_3_7_0_4 0
x_3_7_0_5 0
x_3_7_1_0 0
x_3_7_1_1 0
x_3_7_1_2 0
x_3_7_1_3 0
x_3_7_1_4 0
x_3_7_1_5 0
x_3_8_0_0 0
x_3_8_0_1 0
x_3_8_0_2 0
x_3_8_0_3 0
x_3_8_0_4 0
x_3_8_0_5 0
x_3_8_1_0 0
x_3_8_1_1 0
x_3_8_1_2 0
x_3_8_1_3 2.8449465006019636e-16
x_3_8_1_4 0
x_3_8_1_5 0
x_3_9_0_0 0
x_3_9_0_1 0
x_3_9_0_2 0
x_3_9_0_3 0
x_3_9_0_4 0
x_3_9_0_5 0
x_3_9_1_0 0
x_3_9_1_1 0
x_3_9_1_2 0
x_3_9_1_3 0
x_3_9_1_4 0
x_3_9_1_5 0
x_3_10_0_0 0
x_3_10_0_1 0
x_3_10_0_2 4.7961634663806763e-14
x_3_10_0_3 -3.8163916471489756e-16
x_3_10_0_4 0
x_3_10_0_5 0
x_3_10_1_0 0
x_3_10_1_1 0
x_3_10_1_2 0
x_3_10_1_3 0
x_3_10_1_4 0
x_3_10_1_5 0
x_3_11_0_0 0
x_3_11_0_1 0
x_3_11_0_2 0
x_3_11_0_3 0
x_3_11_0_4 0
x_3_11_0_5 0
x_3_11_1_0 0
x_3_11_1_1 0
x_3_11_1_2 0
x_3_11_1_3 0
x_3_11_1_4 0
x_3_11_1_5 0
x_3_12_0_0 0
x_3_12_0_1 0
x_3_12_0_2 0
x_3_12_0_3 0
x_3_12_0_4 0
x_3_12_0_5 0
x_3_12_1_0 0
x_3_12_1_1 0
x_3_12_1_2 0
x_3_12_1_3 0
x_3_12_1_4 0
x_3_12_1_5 0
x_3_13_0_0 0
x_3_13_0_1 0
x_3_13_0_2 0
x_3_13_0_3 0
x_3_13_0_4 0
x_3_13_0_5 0
x_3_13_1_0 0
x_3_13_1_1 0
x_3_13_1_2 0
x_3_13_1_3 0
x_3_13_1_4 0
x_3_13_1_5 0
x_3_14_0_0 0
x_3_14_0_1 0
x_3_14_0_2 0
x_3_14_0_3 0
x_3_14_0_4 1
x_3_14_0_5 -1.6653345369377348e-16
x_3_14_1_0 0
x_3_14_1_1 0
x_3_14_1_2 -5.5511151231257827e-17
x_3_14_1_3 3.4694469519536142e-17
x_3_14_1_4 0
x_3_14_1_5 0
x_3_15_0_0 0
x_3_15_0_1 0
x_3_15_0_2 0
x_3_15_0_3 0
x_3_15_0_4 0
x_3_15_0_5 0
x_3_15_1_0 0
x_3_15_1_1 0
x_3_15_1_2 -7.6327832942979512e-17
x_3_15_1_3 0
x_3_15_1_4 0
x_3_15_1_5 0
x_4_5_0_0 0
x_4_5_0_1 0
x_4_5_0_2 0
x_4_5_0_3 0
x_4_5_0_4 0
x_4_5_0_5 0
x_4_5_1_0 0
x_4_5_1_1 0
x_4_5_1_2 0
x_4_5_1_3 0
x_4_5_1_4 0
x_4_5_1_5 0
x_4_6_0_0 0
x_4_6_0_1 0
x_4_6_0_2 0
x_4_6_0_3 0
x_4_6_0_4 0
x_4_6_0_5 0
x_4_6_1_0 0
x_4_6_1_1 0
x_4_6_1_2 0
x_4_6_1_3 0
x_4_6_1_4 0
x_4_6_1_5 0
x_4_7_0_0 0
x_4_7_0_1 0
x_4_7_0_2 0
x_4_7_0_3 0
x_4_7_0_4 0
x_4_7_0_5 0
x_4_7_1_0 0
x_4_7_1_1 0
x_4_7_1_2 0
x_4_7_1_3 0
x_4_7_1_4 0
x_4_7_1_5 0
x_4_8_0_0 0
x_4_8_0_1 0
x_4_8_0_2 0
x_4_8_0_3 0
x_4_8_0_4 0
x_4_8_0_5 0
x_4_8_1_0 0
x_4_8_1_1 0
x_4_8_1_2 0
x_4_8_1_3 0
x_4_8_1_4 0
x_4_8_1_5 0
x_4_9_0_0 0
x_4_9_0_1 0
x_4_9_0_2 0
x_4_9_0_3 0
x_4_9_0_4 0
x_4_9_0_5 0
x_4_9_1_0 0
x_4_9_1_1 0
x_4_9_1_2 0
x_4_9_1_3 0
x_4_9_1_4 0
x_4_9_1_5 0
x_4_10_0_0 0
x_4_10_0_1 0
x_4_10_0_2 0
x_4_10_0_3 0
x_4_10_0_4 0
x_4_10_0_5 0
x_4_10_1_0 0
x_4_10_1_1 0
x_4_10_1_2 0
x_4_10_1_3 0
x_4_10_1_4 0
x_4_10_1_5 0
x_4_11_0_0 0
x_4_11_0_1 0
x_4_11_0_2 0
x_4_11_0_3 0
x_4_11_0_4 0
x_4_11_0_5 0
x_4_11_1_0 0
x_4_11_1_1 0
x_4_11_1_2 0
x_4_11_1_3 0
x_4_11_1_4 0
x_4_11_1_5 0
x_4_12_0_0 0
x_4_12_0_1 0
x_4_12_0_2 0
x_4_12_0_3 5.5511151231257827e-17
x_4_12_0_4 0
x_4_12_0_5 0
x_4_12_1_0 0
x_4_12_1_1 0
x_4_12_1_2 0
x_4_12_1_3 0
x_4_12_1_4 0
x_4_12_1_5 0
x_4_13_0_0 0
x_4_13_0_1 0
x_4_13_0_2 0
x_4_13_0_3 0
x_4_13_0_4 0
x_4_13_0_5 0
x_4_13_1_0 0
x_4_13_1_1 0
x_4_13_1_2 0
x_4_13_1_3 0
x_4_13_1_4 0
x_4_13_1_5 0
x_4_14_0_0 0
x_4_14_0_1 0
x_4_14_0_2 0
x_4_14_0_3 0
x_4_14_0_4 0
x_4_14_0_5 0
x_4_14_1_0 0
x_4_14_1_1 0
x_4_14_1_2 0
x_4_14_1_3 0
x_4_14_1_4 0
x_4_14_1_5 0
x_4_15_0_0 0
x_4_15_0_1 0
x_4_15_0_2 0
x_4_15_0_3 0
x_4_15_0_4 0
x_4_15_0_5 0
x_4_15_1_0 0
x_4_15_1_1 0
x_4_15_1_2 0
x_4_15_1_3 0
x_4_15_1_4 0
x_4_15_1_5 0
x_5_6_0_0 0
x_5_6_0_1 0
x_5_6_0_2 0
x_5_6_0_3 0
x_5_6_0_4 0
x_5_6_0_5 0
x_5_6_1_0 0
x_5_6_1_1 0
x_5_6_1_2 0
x_5_6_1_3 0
x_5_6_1_4 0
x_5_6_1_5 0
x_5_7_0_0 0
x_5_7_0_1 0
x_5_7_0_2 0
x_5_7_0_3 0
x_5_7_0_4 0
x_5_7_0_5 0
x_5_7_1_0 0
x_5_7_1_1 0
x_5_7_1_2 0
x_5_7_1_3 0
x_5_7_1_4 0
x_5_7_1_5 0
x_5_8_0_0 0
x_5_8_0_1 0
x_5_8_0_2 0
x_5_8_0_3 0
x_5_8_0_4 0
x_5_8_0_5 0
x_5_8_1_0 0
x_5_8_1_1 0
x_5_8_1_2 0
x_5_8_1_3 0
x_5_8_1_4 0
x_5_8_1_5 0
x_5_9_0_0 0
x_5_9_0_1 0
x_5_9_0_2 0
x_5_9_0_3 0
x_5_9_0_4 0
x_5_9_0_5 0
x_5_9_1_0 0
x_5_9_1_1 0
x_5_9_1_2 0
x_5_9_1_3 0
x_5_9_1_4 0
x_5_9_1_5 0
x_5_10_0_0 0
x_5_10_0_1 0
x_5_10_0_2 1
x_5_10_0_3 9.9999999999999989e-01
x_5_10_0_4 0
x_5_10_0_5 0
x_5_10_1_0 0
x_5_10_1_1 0
x_5_10_1_2 0
x_5_10_1_3 0
x_5_10_1_4 0
x_5_10_1_5 0
x_5_11_0_0 0
x_5_11_0_1 0
x_5_11_0_2 0
x_5_11_0_3 0
x_5_11_0_4 0
x_5_11_0_5 0
x_5_11_1_0 0
x_5_11_1_1 0
x_5_11_1_2 0
x_5_11_1_3 0
x_5_11_1_4 0
x_5_11_1_5 0
x_5_12_0_0 0
x_5_12_0_1 0
x_5_12_0_2 0
x_5_12_0_3 0
x_5_12_0_4 0
x_5_12_0_5 0
x_5_12_1_0 0
x_5_12_1_1 0
x_5_12_1_2 0
x_5_12_1_3 0
x_5_12_1_4 0
x_5_12_1_5 0
x_5_13_0_0 0
x_5_13_0_1 0
x_5_13_0_2 0
x_5_13_0_3 0
x_5_13_0_4 0
x_5_13_0_5 0
x_5_13_1_0 0
x_5_13_1_1 0
x_5_13_1_2 0
x_5_13_1_3 0
x_5_13_1_4 0
x_5_13_1_5 0
x_5_14_0_0 0
x_5_14_0_1 0
x_5_14_0_2 0
x_5_14_0_3 0
x_5_14_0_4 0
x_5_14_0_5 0
x_5_14_1_0 0
x_5_14_1_1 0
x_5_14_1_2 0
x_5_14_1_3 0
x_5_14_1_4 0
x_5_14_1_5 0
x_5_15_0_0 0
x_5_15_0_1 0
x_5_15_0_2 0
x_5_15_0_3 0
x_5_15_0_4 0
x_5_15_0_5 0
x_5_15_1_0 0
x_5_15_1_1 0
x_5_15_1_2 1.3183898417423734e-16
x_5_15_1_3 0
x_5_15_1_4 0
x_5_15_1_5 0
x_6_7_0_0 -5.5511151231257827e-17
x_6_7_0_1 0
x_6_7_0_2 0
x_6_7_0_3 0
x_6_7_0_4 0
x_6_7_0_5 0
x_6_7_1_0 0
x_6_7_1_1 0
x_6_7_1_2 0
x_6_7_1_3 1
x_6_7_1_4 0
x_6_7_1_5 0
x_6_8_0_0 0
x_6_8_0_1 0
x_6_8_0_2 0
x_6_8_0_3 0
x_6_8_0_4 0
x_6_8_0_5 0
x_6_8_1_0 0
x_6_8_1_1 0
x_6_8_1_2 0
x_6_8_1_3 0
x_6_8_1_4 0
x_6_8_1_5 1.6653345369377348e-16
x_6_9_0_0 -5.5511151231257827e-17
x_6_9_0_1 0
x_6_9_0_2 -8.3266726846886741e-17
x_6_9_0_3 0
x_6_9_0_4 0
x_6_9_0_5 0
x_6_9_1_0 0
x_6_9_1_1 0
x_6_9_1_2 0
x_6_9_1_3 1
x_6_9_1_4 0
x_6_9_1_5 0
x_6_10_0_0 0
x_6_10_0_1 0
x_6_10_0_2 0
x_6_10_0_3 0
x_6_10_0_4 0
x_6_10_0_5 0
x_6_10_1_0 0
x_6_10_1_1 0
x_6_10_1_2 0
x_6_10_1_3 3.1918911957973251e-16
x_6_10_1_4 0
x_6_10_1_5 0
x_6_11_0_0 0
x_6_11_0_1 0
x_6_11_0_2 0
x_6_11_0_3 0
x_6_11_0_4 0
x_6_11_0_5 0
x_6_11_1_0 0
x_6_11_1_1 1
x_6_11_1_2 -2.7755575615628914e-17
x_6_11_1_3 0
x_6_11_1_4 0
x_6_11_1_5 0
x_6_12_0_0 0
x_6_12_0_1 0
x_6_12_0_2 0
x_6_12_0_3 0
x_6_12_0_4 0
x_6_12_0_5 0
x_6_12_1_0 0
x_6_12_1_1 0
x_6_12_1_2 0
x_6_12_1_3 0
x_6_12_1_4 0
x_6_12_1_5 0
x_6_13_0_0 0
x_6_13_0_1 0
x_6_13_0_2 0
x_6_13_0_3 0
x_6_13_0_4 0
x_6_13_0_5 0
x_6_13_1_0 0
x_6_13_1_1 0
x_6_13_1_2 0
x_6_13_1_3 0
x_6_13_1_4 0
x_6_13_1_5 0
x_6_14_0_0 0
x_6_14_0_1 0
x_6_14_0_2 0
x_6_14_0_3 0
x_6_14_0_4 0
x_6_14_0_5 0
x_6_14_1_0 0
x_6_14_1_1 0
x_6_14_1_2 -4.85722573273506e-17
x_6_14_1_3 0
x_6_14_1_4 0
x_6_14_1_5 0
x_6_15_0_0 0
x_6_15_0_1 0
x_6_15_0_2 0
x_6_15_0_3 0
x_6_15_0_4 0
x_6_15_0_5 0
x_6_15_1_0 0
x_6_15_1_1 0
x_6_15_1_2 0
x_6_15_1_3 0
x_6_15_1_4 0
x_6_15_1_5 -1.6653345369377348e-16
x_7_8_0_0 0
x_7_8_0_1 0
x_7_8_0_2 0
x_7_8_0_3 0
x_7_8_0_4 0
x_7_8_0_5 0
x_7_8_1_0 0
x_7_8_1_1 0
x_7_8_1_2 0
x_7_8_1_3 0
x_7_8_1_4 0
x_7_8_1_5 0
x_7_9_0_0 5.5511151231257827e-17
x_7_9_0_1 0
x_7_9_0_2 0
x_7_9_0_3 0
x_7_9_0_4 0
x_7_9_0_5 0
x_7_9_1_0 0
x_7_9_1_1 9.9999999999999989e-01
x_7_9_1_2 0
x_7_9_1_3 0
x_7_9_1_4 0
x_7_9_1_5 0
x_7_10_0_0 0
x_7_10_0_1 0
x_7_10_0_2 0
x_7_10_0_3 0
x_7_10_0_4 0
x_7_10_0_5 0
x_7_10_1_0 0
x_7_10_1_1 0
x_7_10_1_2 0
x_7_10_1_3 0
x_7_10_1_4 0
x_7_10_1_5 0
x_7_11_0_0 0
x_7_11_0_1 0
x_7_11_0_2 0
x_7_11_0_3 0
x_7_11_0_4 0
x_7_11_0_5 0
x_7_11_1_0 0
x_7_11_1_1 0
x_7_11_1_2 0
x_7_11_1_3 0
x_7_11_1_4 0
x_7_11_1_5 0
x_7_12_0_0 0
x_7_12_0_1 0
x_7_12_0_2 0
x_7_12_0_3 0
x_7_12_0_4 0
x_7_12_0_5 0
x_7_12_1_0 0
x_7_12_1_1 0
x_7_12_1_2 0
x_7_12_1_3 0
x_7_12_1_4 0
x_7_12_1_5 0
x_7_13_0_0 0
x_7_13_0_1 0
x_7_13_0_2 0
x_7_13_0_3 0
x_7_13_0_4 0
x_7_13_0_5 0
x_7_13_1_0 0
x_7_13_1_1 0
x_7_13_1_2 0
x_7_13_1_3 0
x_7_13_1_4 0
x_7_13_1_5 0
x_7_14_0_0 0
x_7_14_0_1 0
x_7_14_0_2 0
x_7_14_0_3 0
x_7_14_0_4 0
x_7_14_0_5 0
x_7_14_1_0 0
x_7_14_1_1 9.9999999999999989e-01
x_7_14_1_2 2.0816681711721685e-17
x_7_14_1_3 1
x_7_14_1_4 0
x_7_14_1_5 0
x_7_15_0_0 0
x_7_15_0_1 0
x_7_15_0_2 0
x_7_15_0_3 0
x_7_15_0_4 0
x_7_15_0_5 0
x_7_15_1_0 0
x_7_15_1_1 0
x_7_15_1_2 0
x_7_15_1_3 0
x_7_15_1_4 0
x_7_15_1_5 0
x_8_9_0_0 0
x_8_9_0_1 0
x_8_9_0_2 0
x_8_9_0_3 0
x_8_9_0_4 0
x_8_9_0_5 0
x_8_9_1_0 0
x_8_9_1_1 0
x_8_9_1_2 0
x_8_9_1_3 0
x_8_9_1_4 0
x_8_9_1_5 -3.3306690738754696e-16
x_8_10_0_0 0
x_8_10_0_1 0
x_8_10_0_2 0
x_8_10_0_3 0
x_8_10_0_4 0
x_8_10_0_5 0
x_8_10_1_0 0
x_8_10_1_1 0
x_8_10_1_2 0
x_8_10_1_3 3.1918911957973251e-16
x_8_10_1_4 0
x_8_10_1_5 0
x_8_11_0_0 0
x_8_11_0_1 0
x_8_11_0_2 0
x_8_11_0_3 0
x_8_11_0_4 0
x_8_11_0_5 0
x_8_11_1_0 0
x_8_11_1_1 0
x_8_11_1_2 0
x_8_11_1_3 0
x_8_11_1_4 0
x_8_11_1_5 0
x_8_12_0_0 0
x_8_12_0_1 0
x_8_12_0_2 0
x_8_12_0_3 0
x_8_12_0_4 0
x_8_12_0_5 0
x_8_12_1_0 0
x_8_12_1_1 0
x_8_12_1_2 0
x_8_12_1_3 0
x_8_12_1_4 0
x_8_12_1_5 0
x_8_13_0_0 0
x_8_13_0_1 0
x_8_13_0_2 0
x_8_13_0_3 0
x_8_13_0_4 1.0000000000000002e+00
x_8_13_0_5 0
x_8_13_1_0 0
x_8_13_1_1 0
x_8_13_1_2 0
x_8_13_1_3 0
x_8_13_1_4 0
x_8_13_1_5 0
x_8_14_0_0 0
x_8_14_0_1 0
x_8_14_0_2 0
x_8_14_0_3 0
x_8_14_0_4 0
x_8_14_0_5 0
x_8_14_1_0 0
x_8_14_1_1 0
x_8_14_1_2 0
x_8_14_1_3 0
x_8_14_1_4 0
x_8_14_1_5 0
x_8_15_0_0 0
x_8_15_0_1 9.9999999999987188e-01
x_8_15_0_2 0
x_8_15_0_3 0
x_8_15_0_4 9.9999999999999978e-01
x_8_15_0_5 1.6653345369377348e-16
x_8_15_1_0 0
x_8_15_1_1 0
x_8_15_1_2 0
x_8_15_1_3 1.8041124150158794e-16
x_8_15_1_4 0
x_8_15_1_5 -1.6653345369377348e-16
x_9_10_0_0 0
x_9_10_0_1 0
x_9_10_0_2 0
x_9_10_0_3 0
x_9_10_0_4 0
x_9_10_0_5 0
x_9_10_1_0 0
x_9_10_1_1 0
x_9_10_1_2 0
x_9_10_1_3 0
x_9_10_1_4 0
x_9_10_1_5 0
x_9_11_0_0 0
x_9_11_0_1 0
x_9_11_0_2 0
x_9_11_0_3 0
x_9_11_0_4 0
x_9_11_0_5 0
x_9_11_1_0 0
x_9_11_1_1 1
x_9_11_1_2 0
x_9_11_1_3 0
x_9_11_1_4 0
x_9_11_1_5 0
x_9_12_0_0 0
x_9_12_0_1 0
x_9_12_0_2 0
x_9_12_0_3 0
x_9_12_0_4 0
x_9_12_0_5 0
x_9_12_1_0 0
x_9_12_1_1 0
x_9_12_1_2 0
x_9_12_1_3 0
x_9_12_1_4 0
x_9_12_1_5 0
x_9_13_0_0 0
x_9_13_0_1 0
x_9_13_0_2 0
x_9_13_0_3 0
x_9_13_0_4 0
x_9_13_0_5 0
x_9_13_1_0 0
x_9_13_1_1 0
x_9_13_1_2 0
x_9_13_1_3 0
x_9_13_1_4 0
x_9_13_1_5 0
x_9_14_0_0 0
x_9_14_0_1 0
x_9_14_0_2 0
x_9_14_0_3 0
x_9_14_0_4 0
x_9_14_0_5 0
x_9_14_1_0 0
x_9_14_1_1 0
x_9_14_1_2 0
x_9_14_1_3 0
x_9_14_1_4 0
x_9_14_1_5 0
x_9_15_0_0 0
x_9_15_0_1 0
x_9_15_0_2 6.9388939039072284e-17
x_9_15_0_3 0
x_9_15_0_4 0
x_9_15_0_5 0
x_9_15_1_0 0
x_9_15_1_1 0
x_9_15_1_2 1.3244960683778118e-13
x_9_15_1_3 0
x_9_15_1_4 0
x_9_15_1_5 0
x_10_11_0_0 0
x_10_11_0_1 0
x_10_11_0_2 0
x_10_11_0_3 0
x_10_11_0_4 0
x_10_11_0_5 0
x_10_11_1_0 0
x_10_11_1_1 0
x_10_11_1_2 0
x_10_11_1_3 0
x_10_11_1_4 0
x_10_11_1_5 0
x_10_12_0_0 0
x_10_12_0_1 0
x_10_12_0_2 0
x_10_12_0_3 0
x_10_12_0_4 0
x_10_12_0_5 0
x_10_12_1_0 0
x_10_12_1_1 0
x_10_12_1_2 0
x_10_12_1_3 0
x_10_12_1_4 0
x_10_12_1_5 0
x_10_13_0_0 0
x_10_13_0_1 0
x_10_13_0_2 0
x_10_13_0_3 1
x_10_13_0_4 0
x_10_13_0_5 0
x_10_13_1_0 0
x_10_13_1_1 0
x_10_13_1_2 0
x_10_13_1_3 0
x_10_13_1_4 0
x_10_13_1_5 0
x_10_14_0_0 0
x_10_14_0_1 0
x_10_14_0_2 0
x_10_14_0_3 0
x_10_14_0_4 0
x_10_14_0_5 0
x_10_14_1_0 0
x_10_14_1_1 0
x_10_14_1_2 0
x_10_14_1_3 0
x_10_14_1_4 0
x_10_14_1_5 0
x_10_15_0_0 0
x_10_15_0_1 0
x_10_15_0_2 0
x_10_15_0_3 0
x_10_15_0_4 0
x_10_15_0_5 0
x_10_15_1_0 0
x_10_15_1_1 0
x_10_15_1_2 0
x_10_15_1_3 0
x_10_15_1_4 0
x_10_15_1_5 0
x_11_12_0_0 0
x_11_12_0_1 0
x_11_12_0_2 0
x_11_12_0_3 0
x_11_12_0_4 0
x_11_12_0_5 0
x_11_12_1_0 0
x_11_12_1_1 0
x_11_12_1_2 0
x_11_12_1_3 0
x_11_12_1_4 0
x_11_12_1_5 0
x_11_13_0_0 0
x_11_13_0_1 0
x_11_13_0_2 0
x_11_13_0_3 0
x_11_13_0_4 0
x_11_13_0_5 0
x_11_13_1_0 0
x_11_13_1_1 0
x_11_13_1_2 0
x_11_13_1_3 0
x_11_13_1_4 0
x_11_13_1_5 0
x_11_14_0_0 0
x_11_14_0_1 0
x_11_14_0_2 0
x_11_14_0_3 0
x_11_14_0_4 1
x_11_14_0_5 0
x_11_14_1_0 0
x_11_14_1_1 0
x_11_14_1_2 0
x_11_14_1_3 0
x_11_14_1_4 0
x_11_14_1_5 0
x_11_15_0_0 0
x_11_15_0_1 0
x_11_15_0_2 0
x_11_15_0_3 0
x_11_15_0_4 1.0000000000000002e+00
x_11_15_0_5 0
x_11_15_1_0 0
x_11_15_1_1 0
x_11_15_1_2 2.7755575615628914e-17
x_11_15_1_3 0
x_11_15_1_4 0
x_11_15_1_5 0
x_12_13_0_0 0
x_12_13_0_1 0
x_12_13_0_2 0
x_12_13_0_3 0
x_12_13_0_4 0
x_12_13_0_5 0
x_12_13_1_0 0
x_12_13_1_1 0
x_12_13_1_2 0
x_12_13_1_3 0
x_12_13_1_4 0
x_12_13_1_5 0
x_12_14_0_0 0
x_12_14_0_1 0
x_12_14_0_2 0
x_12_14_0_3 0
x_12_14_0_4 0
x_12_14_0_5 0
x_12_14_1_0 0
x_12_14_1_1 0
x_12_14_1_2 0
x_12_14_1_3 0
x_12_14_1_4 0
x_12_14_1_5 0
x_12_15_0_0 0
x_12_15_0_1 0
x_12_15_0_2 0
x_12_15_0_3 0
x_12_15_0_4 0
x_12_15_0_5 0
x_12_15_1_0 0
x_12_15_1_1 0
x_12_15_1_2 0
x_12_15_1_3 0
x_12_15_1_4 0
x_12_15_1_5 0
x_13_14_0_0 0
x_13_14_0_1 0
x_13_14_0_2 0
x_13_14_0_3 0
x_13_14_0_4 0
x_13_14_0_5 0
x_13_14_1_0 0
x_13_14_1_1 0
x_13_14_1_2 0
x_13_14_1_3 0
x_13_14_1_4 0
x_13_14_1_5 0
x_13_15_0_0 0
x_13_15_0_1 0
x_13_15_0_2 0
x_13_15_0_3 0
x_13_15_0_4 0
x_13_15_0_5 0
x_13_15_1_0 0
x_13_15_1_1 0
x_13_15_1_2 0
x_13_15_1_3 0
x_13_15_1_4 0
x_13_15_1_5 0
x_14_15_0_0 0
x_14_15_0_1 0
x_14_15_0_2 0
x_14_15_0_3 0
x_14_15_0_4 0
x_14_15_0_5 1.6653345369377348e-16
x_14_15_1_0 0
x_14_15_1_1 0
x_14_15_1_2 0
x_14_15_1_3 0
x_14_15_1_4 0
x_14_15_1_5 0
